45
2 47 118 
2 71 31 
2 69 28 
2 106 60 
2 75 39 
3 16 32 113 
3 22 68 38 
2 78 116 
3 59 61 54 
3 50 20 36 
3 87 36 53 
2 1 79 
2 17 15 
2 101 93 
2 114 64 
2 55 45 
2 51 43 
3 7 33 119 
3 83 5 26 
2 89 40 
3 110 56 2 
2 61 94 
3 61 102 87 
3 25 109 104 
3 98 21 117 
3 63 66 13 
3 112 29 81 
3 77 111 99 
3 3 62 11 
3 96 103 4 
3 59 61 57 
3 58 72 76 
3 85 80 95 
3 120 88 18 
3 65 52 100 
2 30 8 
3 37 49 90 
3 12 70 64 
3 50 89 20 
3 62 48 34 
3 84 42 46 
3 48 70 34 
3 59 61 54 
3 73 115 108 
3 107 44 41 
